
  14    0


   0   8 2 3 4 5 10 11 12 13 
   4   3 9 8 7 
   9   1 7 
   9   1 6 
   8   1 6 
   8   1 14
   1   1 14
  10   1 14
   1   1 14
   9   1 14
  10   1 14
   5   1 14
   9   1 14
   0   0 
